\ Model IP_mmnl2
\ LP format - for model browsing. Use MPS format to capture full model detail.
Maximize
  0.918869589674379 z[0] + 0.081130410325621 z[1]
Subject To
 y_0: y[0] = 1
 y_1: y[1] = 1
 y_2: y[2] = 1
 xa_0_0: x[0,0] - 3 y[0] <= 0
 xb_0_0: z[0] + x[0,0] - 3 y[0] >= -1
 xc_0_0: z[0] + x[0,0] + 3 y[0] <= 5
 xa_1_0: x[1,0] - 3 y[1] <= 0
 xb_1_0: z[0] + x[1,0] - 3 y[1] >= -1
 xc_1_0: z[0] + x[1,0] + 3 y[1] <= 5
 xa_2_0: x[2,0] - 3 y[2] <= 0
 xb_2_0: z[0] + x[2,0] - 3 y[2] >= -2
 xc_2_0: z[0] + x[2,0] + 3 y[2] <= 4
 z_0: z[0] - 0.0938 x[0,0] - 0.0503 x[1,0] - 1.005 x[2,0] = 0
 xa_0_1: x[0,1] - 3 y[0] <= 0
 xb_0_1: z[1] + x[0,1] - 3 y[0] >= -1
 xc_0_1: z[1] + x[0,1] + 3 y[0] <= 5
 xa_1_1: x[1,1] - 3 y[1] <= 0
 xb_1_1: z[1] + x[1,1] - 3 y[1] >= -1
 xc_1_1: z[1] + x[1,1] + 3 y[1] <= 5
 xa_2_1: x[2,1] - 3 y[2] <= 0
 xb_2_1: z[1] + x[2,1] - 3 y[2] >= -2
 xc_2_1: z[1] + x[2,1] + 3 y[2] <= 4
 z_1: z[1] - 1.0841 x[0,1] - 1.0829 x[1,1] - 0.0832 x[2,1] = 0
Bounds
Binaries
 y[0] y[1] y[2]
End
